NAME: ../File/prFile/tspFile/tsp_file25.tsp
COMMENT: TSP file generated by Python
TYPE: TSP
DIMENSION: 30
EDGE_WEIGHT_TYPE: EUC_2D
NODE_COORD_SECTION
1 12 95
2 18 92
3 3 25
4 61 77
5 17 42
6 17 74
7 93 54
8 59 26
9 3 73
10 83 37
11 83 19
12 23 82
13 3 16
14 91 3
15 29 18
16 49 74
17 56 92
18 60 99
19 76 13
20 16 83
21 78 22
22 70 70
23 69 95
24 93 28
25 51 56
26 31 38
27 74 75
28 91 46
29 100 8
30 26 46
EOF
